graph_generation/data/cp/rcsp/hexagonal_lattice_N_1_weights-random_windows-loose.dzn
N = 6;
M = 12;
Edge_Start = [1, 1, 2, 3, 4, 5, 2, 4, 3, 6, 5, 6];
Edge_End = [2, 4, 3, 6, 5, 6, 1, 1, 2, 3, 4, 5];
L = [11, 12, 6, 6, 10, 14, 11, 12, 6, 6, 10, 14];
T = [7, 1, 12, 10, 8, 6, 7, 1, 12, 10, 8, 6];
Lower_Bound = [0, 7, 19, 1, 9, 16];
Upper_Bound = [5, 16, 24, 2, 19, 18];
Start = 1;
End = 6;
Time = 18;
