graph_generation/data/sat/rcsp/hexagonal_lattice_N_1_weights-random_windows-loose.txt
N = 6;
M = 6;
Edge_Start = [1, 1, 2, 3, 4, 5];
Edge_End = [2, 4, 3, 6, 5, 6];
L = [11, 12, 6, 6, 10, 14];
T = [7, 1, 12, 10, 8, 6];
Lower_Bound = [0, 7, 19, 1, 9, 16];
Upper_Bound = [5, 16, 24, 2, 19, 18];
Start = 1;
End = 6;
Time = 18;
